p cnf 830 2105
a 702 703 704 705 706 707 708 709 710 711 712 713 714 715 716 717 718 719 720 721 722 723 724 725 726 727 728 729 730 731 732 733 734 735 736 737 738 739 740 741 742 743 744 745 746 747 748 749 750 751 752 753 754 755 756 757 758 759 760 761 762 763 764 765 766 767 768 769 770 771 772 773 774 775 776 777 778 779 780 781 782 783 784 785 786 787 788 789 790 791 792 793 794 795 796 797 798 799 800 801 802 803 804 805 806 807 808 809 810 811 812 813 814 815 816 817 818 819 820 821 822 823 824 825 826 827 828 829 0
e 1 2 3 4 5 6 7 8 9 10 11 12 13 14 15 16 17 18 19 20 21 22 23 24 25 26 27 28 29 30 31 32 33 34 35 36 37 38 39 40 41 42 43 44 45 46 47 48 49 50 51 52 53 54 55 56 57 58 59 60 61 62 63 64 65 66 67 68 69 70 71 72 73 74 75 76 77 78 79 80 81 82 83 84 85 86 87 88 89 90 91 92 93 94 95 96 97 98 99 100 101 102 103 104 105 106 107 108 109 110 111 112 113 114 115 116 117 118 119 120 121 122 123 124 125 126 127 128 129 130 131 132 133 134 135 136 137 138 139 140 141 142 143 144 145 146 147 148 149 150 151 152 153 154 155 156 157 158 159 160 161 162 163 164 165 166 167 168 169 170 171 172 173 174 175 176 177 178 179 180 181 182 183 184 185 186 187 188 189 190 191 192 193 194 195 196 197 198 199 200 201 202 203 204 205 206 207 208 209 210 211 212 213 214 215 216 217 218 219 220 221 222 223 224 225 226 227 228 229 230 231 232 233 234 235 236 237 238 239 240 241 242 243 244 245 246 247 248 249 250 251 252 253 254 255 256 257 258 259 260 261 262 263 264 265 266 267 268 269 270 271 272 273 274 275 276 277 278 279 280 281 282 283 284 285 286 287 288 289 290 291 292 293 294 295 296 297 298 299 300 301 302 303 304 305 306 307 308 309 310 311 312 313 314 315 316 317 318 319 320 321 322 323 324 325 326 327 328 329 330 331 332 333 334 335 336 337 338 339 340 341 342 343 344 345 346 347 348 349 350 351 352 353 354 355 356 357 358 359 360 361 362 363 364 365 366 367 368 369 370 371 372 373 374 375 376 377 378 379 380 381 382 383 384 385 386 387 388 389 390 391 392 393 394 395 396 397 398 399 400 401 402 403 404 405 406 407 408 409 410 411 412 413 414 415 416 417 418 419 420 421 422 423 424 425 426 427 428 429 430 431 432 433 434 435 436 437 438 439 440 441 442 443 444 445 446 447 448 449 450 451 452 453 454 455 456 457 458 459 460 461 462 463 464 465 466 467 468 469 470 471 472 473 474 475 476 477 478 479 480 481 482 483 484 485 486 487 488 489 490 491 492 493 494 495 496 497 498 499 500 501 502 503 504 505 506 507 508 509 510 511 512 513 514 515 516 517 518 519 520 521 522 523 524 525 526 527 528 529 530 531 532 533 534 535 536 537 538 539 540 541 542 543 544 545 546 547 548 549 550 551 552 553 554 555 556 557 558 559 560 561 562 563 564 565 566 567 568 569 570 571 572 573 574 575 576 577 578 579 580 581 582 583 584 585 586 587 588 589 590 591 592 593 594 595 596 597 598 599 600 601 602 603 604 605 606 607 608 609 610 611 612 613 614 615 616 617 618 619 620 621 622 623 624 625 626 627 628 629 630 631 632 633 634 635 636 637 638 639 640 641 642 643 644 645 646 647 648 649 650 651 652 653 654 655 656 657 658 659 660 661 662 663 664 665 666 667 668 669 670 671 672 673 674 675 676 677 678 679 680 681 682 683 684 685 686 687 688 689 690 691 692 693 694 695 696 697 698 699 700 701 830 0
821 823 1 0
-821 -1 0
-823 -1 0
829 -1 2 0
-829 -2 0
1 -2 0
827 -2 3 0
-827 -3 0
2 -3 0
825 -3 4 0
-825 -4 0
3 -4 0
-817 818 5 0
817 -5 0
-818 -5 0
819 5 6 0
-819 -6 0
-5 -6 0
820 6 7 0
-820 -7 0
-6 -7 0
-4 7 8 0
4 -8 0
-7 -8 0
-812 813 9 0
812 -9 0
-813 -9 0
814 9 10 0
-814 -10 0
-9 -10 0
815 10 11 0
-815 -11 0
-10 -11 0
818 11 12 0
-818 -12 0
-11 -12 0
816 -12 13 0
-816 -13 0
12 -13 0
813 815 14 0
-813 -14 0
-815 -14 0
811 -14 15 0
-811 -15 0
14 -15 0
-807 808 16 0
807 -16 0
-808 -16 0
809 16 17 0
-809 -17 0
-16 -17 0
810 17 18 0
-810 -18 0
-17 -18 0
-15 18 19 0
15 -19 0
-18 -19 0
-802 803 20 0
802 -20 0
-803 -20 0
804 20 21 0
-804 -21 0
-20 -21 0
805 21 22 0
-805 -22 0
-21 -22 0
812 813 23 0
-812 -23 0
-813 -23 0
811 -23 24 0
-811 -24 0
23 -24 0
810 -24 25 0
-810 -25 0
24 -25 0
808 809 26 0
-808 -26 0
-809 -26 0
807 -26 27 0
-807 -27 0
26 -27 0
806 -27 28 0
-806 -28 0
27 -28 0
-25 -28 29 0
25 -29 0
28 -29 0
22 -29 30 0
-22 -30 0
29 -30 0
-19 30 31 0
19 -31 0
-30 -31 0
-799 800 32 0
799 -32 0
-800 -32 0
805 32 33 0
-805 -33 0
-32 -33 0
803 -33 34 0
-803 -34 0
33 -34 0
801 -34 35 0
-801 -35 0
34 -35 0
798 800 36 0
-798 -36 0
-800 -36 0
-35 36 37 0
35 -37 0
-36 -37 0
-15 -37 38 0
15 -38 0
37 -38 0
18 -38 39 0
-18 -39 0
38 -39 0
31 39 40 0
-31 -40 0
-39 -40 0
-13 -40 41 0
13 -41 0
40 -41 0
820 -41 42 0
-820 -42 0
41 -42 0
-8 42 43 0
8 -43 0
-42 -43 0
-822 823 44 0
822 -44 0
-823 -44 0
824 44 45 0
-824 -45 0
-44 -45 0
825 45 46 0
-825 -46 0
-45 -46 0
826 46 47 0
-826 -47 0
-46 -47 0
827 47 48 0
-827 -48 0
-47 -48 0
828 48 49 0
-828 -49 0
-48 -49 0
829 49 50 0
-829 -50 0
-49 -50 0
43 50 51 0
-43 -51 0
-50 -51 0
-792 793 52 0
792 -52 0
-793 -52 0
794 52 53 0
-794 -53 0
-52 -53 0
795 53 54 0
-795 -54 0
-53 -54 0
796 54 55 0
-796 -55 0
-54 -55 0
-777 778 56 0
777 -56 0
-778 -56 0
779 56 57 0
-779 -57 0
-56 -57 0
780 57 58 0
-780 -58 0
-57 -58 0
785 58 59 0
-785 -59 0
-58 -59 0
-772 773 60 0
772 -60 0
-773 -60 0
774 60 61 0
-774 -61 0
-60 -61 0
775 61 62 0
-775 -62 0
-61 -62 0
780 62 63 0
-780 -63 0
-62 -63 0
778 -63 64 0
-778 -64 0
63 -64 0
776 -64 65 0
-776 -65 0
64 -65 0
-59 65 66 0
59 -66 0
-65 -66 0
783 -66 67 0
-783 -67 0
66 -67 0
781 -67 68 0
-781 -68 0
67 -68 0
-782 783 69 0
782 -69 0
-783 -69 0
784 69 70 0
-784 -70 0
-69 -70 0
785 70 71 0
-785 -71 0
-70 -71 0
788 71 72 0
-788 -72 0
-71 -72 0
786 -72 73 0
-786 -73 0
72 -73 0
68 -73 74 0
-68 -74 0
73 -74 0
-55 -74 75 0
55 -75 0
74 -75 0
790 -75 76 0
-790 -76 0
75 -76 0
768 769 77 0
-768 -77 0
-769 -77 0
767 -77 78 0
-767 -78 0
77 -78 0
766 -78 79 0
-766 -79 0
78 -79 0
-762 763 80 0
762 -80 0
-763 -80 0
764 80 81 0
-764 -81 0
-80 -81 0
765 81 82 0
-765 -82 0
-81 -82 0
772 773 83 0
-772 -83 0
-773 -83 0
771 -83 84 0
-771 -84 0
83 -84 0
770 -84 85 0
-770 -85 0
84 -85 0
82 -85 86 0
-82 -86 0
85 -86 0
-79 -86 87 0
79 -87 0
86 -87 0
-742 743 88 0
742 -88 0
-743 -88 0
744 88 89 0
-744 -89 0
-88 -89 0
745 89 90 0
-745 -90 0
-89 -90 0
-752 753 91 0
752 -91 0
-753 -91 0
754 91 92 0
-754 -92 0
-91 -92 0
755 92 93 0
-755 -93 0
-92 -93 0
90 93 94 0
-90 -94 0
-93 -94 0
748 -94 95 0
-748 -95 0
94 -95 0
746 -95 96 0
-746 -96 0
95 -96 0
758 760 97 0
-758 -97 0
-760 -97 0
756 -97 98 0
-756 -98 0
97 -98 0
-96 -98 99 0
96 -99 0
98 -99 0
750 -99 100 0
-750 -100 0
99 -100 0
-732 733 101 0
732 -101 0
-733 -101 0
734 101 102 0
-734 -102 0
-101 -102 0
735 102 103 0
-735 -103 0
-102 -103 0
-727 728 104 0
727 -104 0
-728 -104 0
729 104 105 0
-729 -105 0
-104 -105 0
730 105 106 0
-730 -106 0
-105 -106 0
733 735 107 0
-733 -107 0
-735 -107 0
731 -107 108 0
-731 -108 0
107 -108 0
106 -108 109 0
-106 -109 0
108 -109 0
-722 723 110 0
722 -110 0
-723 -110 0
724 110 111 0
-724 -111 0
-110 -111 0
725 111 112 0
-725 -112 0
-111 -112 0
730 112 113 0
-730 -113 0
-112 -113 0
728 -113 114 0
-728 -114 0
113 -114 0
726 -114 115 0
-726 -115 0
114 -115 0
-109 115 116 0
109 -116 0
-115 -116 0
738 740 117 0
-738 -117 0
-740 -117 0
736 -117 118 0
-736 -118 0
117 -118 0
116 -118 119 0
-116 -119 0
118 -119 0
103 -119 120 0
-103 -120 0
119 -120 0
-717 718 121 0
717 -121 0
-718 -121 0
719 121 122 0
-719 -122 0
-121 -122 0
720 122 123 0
-720 -123 0
-122 -123 0
106 123 124 0
-106 -124 0
-123 -124 0
723 -124 125 0
-723 -125 0
124 -125 0
721 -125 126 0
-721 -126 0
125 -126 0
-108 -126 127 0
108 -127 0
126 -127 0
725 -127 128 0
-725 -128 0
127 -128 0
-703 704 129 0
703 -129 0
-704 -129 0
705 129 130 0
-705 -130 0
-129 -130 0
706 130 131 0
-706 -131 0
-130 -131 0
707 131 132 0
-707 -132 0
-131 -132 0
710 132 133 0
-710 -133 0
-132 -133 0
708 -133 134 0
-708 -134 0
133 -134 0
-709 710 135 0
709 -135 0
-710 -135 0
715 135 136 0
-715 -136 0
-135 -136 0
713 -136 137 0
-713 -137 0
136 -137 0
711 -137 138 0
-711 -138 0
137 -138 0
134 -138 139 0
-134 -139 0
138 -139 0
-712 713 140 0
712 -140 0
-713 -140 0
714 140 141 0
-714 -141 0
-140 -141 0
715 141 142 0
-715 -142 0
-141 -142 0
720 142 143 0
-720 -143 0
-142 -143 0
718 -143 144 0
-718 -144 0
143 -144 0
139 -144 145 0
-139 -145 0
144 -145 0
716 -145 146 0
-716 -146 0
145 -146 0
-128 146 147 0
128 -147 0
-146 -147 0
-120 147 148 0
120 -148 0
-147 -148 0
-737 738 149 0
737 -149 0
-738 -149 0
739 149 150 0
-739 -150 0
-149 -150 0
740 150 151 0
-740 -151 0
-150 -151 0
745 151 152 0
-745 -152 0
-151 -152 0
743 -152 153 0
-743 -153 0
152 -153 0
741 -153 154 0
-741 -154 0
153 -154 0
148 -154 155 0
-148 -155 0
154 -155 0
-100 155 156 0
100 -156 0
-155 -156 0
-757 758 157 0
757 -157 0
-758 -157 0
759 157 158 0
-759 -158 0
-157 -158 0
760 158 159 0
-760 -159 0
-158 -159 0
93 -98 160 0
-93 -160 0
98 -160 0
-747 748 161 0
747 -161 0
-748 -161 0
749 161 162 0
-749 -162 0
-161 -162 0
750 162 163 0
-750 -163 0
-162 -163 0
755 163 164 0
-755 -164 0
-163 -164 0
753 -164 165 0
-753 -165 0
164 -165 0
751 -165 166 0
-751 -166 0
165 -166 0
-160 166 167 0
160 -167 0
-166 -167 0
763 765 168 0
-763 -168 0
-765 -168 0
761 -168 169 0
-761 -169 0
168 -169 0
167 -169 170 0
-167 -170 0
169 -170 0
159 -170 171 0
-159 -171 0
170 -171 0
156 -171 172 0
-156 -172 0
171 -172 0
-87 172 173 0
87 -173 0
-172 -173 0
-767 768 174 0
767 -174 0
-768 -174 0
769 174 175 0
-769 -175 0
-174 -175 0
770 175 176 0
-770 -176 0
-175 -176 0
775 176 177 0
-775 -177 0
-176 -177 0
773 -177 178 0
-773 -178 0
177 -178 0
771 -178 179 0
-771 -179 0
178 -179 0
783 -59 180 0
-783 -180 0
59 -180 0
781 -180 181 0
-781 -181 0
180 -181 0
-179 -181 182 0
179 -182 0
181 -182 0
173 -182 183 0
-173 -183 0
182 -183 0
-76 183 184 0
76 -184 0
-183 -184 0
-787 788 185 0
787 -185 0
-788 -185 0
789 185 186 0
-789 -186 0
-185 -186 0
790 186 187 0
-790 -187 0
-186 -187 0
795 187 188 0
-795 -188 0
-187 -188 0
793 -188 189 0
-793 -189 0
188 -189 0
791 -189 190 0
-791 -190 0
189 -190 0
-55 190 191 0
55 -191 0
-190 -191 0
-19 -35 192 0
19 -192 0
35 -192 0
191 -192 193 0
-191 -193 0
192 -193 0
-8 -193 194 0
8 -194 0
193 -194 0
797 -194 195 0
-797 -195 0
194 -195 0
184 -195 196 0
-184 -196 0
195 -196 0
-51 196 197 0
51 -197 0
-196 -197 0
822 823 198 0
-822 -198 0
-823 -198 0
824 825 199 0
-824 -199 0
-825 -199 0
198 -199 200 0
-198 -200 0
199 -200 0
827 200 201 0
-827 -201 0
-200 -201 0
826 -201 202 0
-826 -202 0
201 -202 0
829 202 203 0
-829 -203 0
-202 -203 0
828 -203 204 0
-828 -204 0
203 -204 0
820 821 205 0
-820 -205 0
-821 -205 0
828 -205 206 0
-828 -206 0
205 -206 0
825 -206 207 0
-825 -207 0
206 -207 0
824 -207 208 0
-824 -208 0
207 -208 0
829 -208 209 0
-829 -209 0
208 -209 0
814 815 210 0
-814 -210 0
-815 -210 0
23 -210 211 0
-23 -211 0
210 -211 0
817 211 212 0
-817 -212 0
-211 -212 0
816 -212 213 0
-816 -213 0
212 -213 0
819 213 214 0
-819 -214 0
-213 -214 0
818 -214 215 0
-818 -215 0
214 -215 0
804 805 216 0
-804 -216 0
-805 -216 0
802 803 217 0
-802 -217 0
-803 -217 0
-216 217 218 0
216 -218 0
-217 -218 0
807 218 219 0
-807 -219 0
-218 -219 0
806 -219 220 0
-806 -220 0
219 -220 0
809 220 221 0
-809 -221 0
-220 -221 0
808 -221 222 0
-808 -222 0
221 -222 0
810 811 223 0
-810 -223 0
-811 -223 0
818 -223 224 0
-818 -224 0
223 -224 0
815 -224 225 0
-815 -225 0
224 -225 0
814 -225 226 0
-814 -226 0
225 -226 0
819 -226 227 0
-819 -227 0
226 -227 0
222 -227 228 0
-222 -228 0
227 -228 0
215 228 229 0
-215 -229 0
-228 -229 0
-209 -229 230 0
209 -230 0
229 -230 0
204 230 231 0
-204 -231 0
-230 -231 0
796 797 232 0
-796 -232 0
-797 -232 0
794 795 233 0
-794 -233 0
-795 -233 0
-232 233 234 0
232 -234 0
-233 -234 0
799 234 235 0
-799 -235 0
-234 -235 0
798 -235 236 0
-798 -236 0
235 -236 0
793 -232 237 0
-793 -237 0
232 -237 0
792 -237 238 0
-792 -238 0
237 -238 0
788 789 239 0
-788 -239 0
-789 -239 0
786 787 240 0
-786 -240 0
-787 -240 0
-239 240 241 0
239 -241 0
-240 -241 0
791 241 242 0
-791 -242 0
-241 -242 0
790 -242 243 0
-790 -243 0
242 -243 0
-238 243 244 0
238 -244 0
-243 -244 0
-236 244 245 0
236 -245 0
-244 -245 0
766 767 246 0
-766 -246 0
-767 -246 0
-77 246 247 0
77 -247 0
-246 -247 0
771 247 248 0
-771 -248 0
-247 -248 0
770 -248 249 0
-770 -249 0
248 -249 0
773 249 250 0
-773 -250 0
-249 -250 0
772 -250 251 0
-772 -251 0
250 -251 0
774 775 252 0
-774 -252 0
-775 -252 0
782 -252 253 0
-782 -253 0
252 -253 0
779 -253 254 0
-779 -254 0
253 -254 0
778 -254 255 0
-778 -255 0
254 -255 0
783 -255 256 0
-783 -256 0
255 -256 0
251 -256 257 0
-251 -257 0
256 -257 0
755 758 258 0
-755 -258 0
-758 -258 0
754 -258 259 0
-754 -259 0
258 -259 0
763 -259 260 0
-763 -260 0
259 -260 0
762 -260 261 0
-762 -261 0
260 -261 0
759 -261 262 0
-759 -262 0
261 -262 0
746 747 263 0
-746 -263 0
-747 -263 0
748 749 264 0
-748 -264 0
-749 -264 0
263 -264 265 0
-263 -265 0
264 -265 0
751 265 266 0
-751 -266 0
-265 -266 0
750 -266 267 0
-750 -267 0
266 -267 0
753 267 268 0
-753 -268 0
-267 -268 0
752 -268 269 0
-752 -269 0
268 -269 0
-262 269 270 0
262 -270 0
-269 -270 0
726 727 271 0
-726 -271 0
-727 -271 0
728 729 272 0
-728 -272 0
-729 -272 0
271 -272 273 0
-271 -273 0
272 -273 0
731 273 274 0
-731 -274 0
-273 -274 0
730 -274 275 0
-730 -275 0
274 -275 0
733 275 276 0
-733 -276 0
-275 -276 0
732 -276 277 0
-732 -277 0
276 -277 0
734 735 278 0
-734 -278 0
-735 -278 0
742 -278 279 0
-742 -279 0
278 -279 0
739 -279 280 0
-739 -280 0
279 -280 0
738 -280 281 0
-738 -281 0
280 -281 0
743 -281 282 0
-743 -282 0
281 -282 0
277 -282 283 0
-277 -283 0
282 -283 0
725 728 284 0
-725 -284 0
-728 -284 0
724 -284 285 0
-724 -285 0
284 -285 0
733 -285 286 0
-733 -286 0
285 -286 0
732 -286 287 0
-732 -287 0
286 -287 0
729 -287 288 0
-729 -288 0
287 -288 0
716 717 289 0
-716 -289 0
-717 -289 0
718 719 290 0
-718 -290 0
-719 -290 0
289 -290 291 0
-289 -291 0
290 -291 0
721 291 292 0
-721 -292 0
-291 -292 0
720 -292 293 0
-720 -293 0
292 -293 0
723 293 294 0
-723 -294 0
-293 -294 0
722 -294 295 0
-722 -295 0
294 -295 0
-288 295 296 0
288 -296 0
-295 -296 0
714 715 297 0
-714 -297 0
-715 -297 0
722 -297 298 0
-722 -298 0
297 -298 0
719 -298 299 0
-719 -299 0
298 -299 0
718 -299 300 0
-718 -300 0
299 -300 0
723 -300 301 0
-723 -301 0
300 -301 0
712 713 302 0
-712 -302 0
-713 -302 0
711 -302 303 0
-711 -303 0
302 -303 0
710 -303 304 0
-710 -304 0
303 -304 0
704 705 305 0
-704 -305 0
-705 -305 0
706 707 306 0
-706 -306 0
-707 -306 0
305 -306 307 0
-305 -307 0
306 -307 0
709 307 308 0
-709 -308 0
-307 -308 0
708 -308 309 0
-708 -309 0
308 -309 0
-304 309 310 0
304 -310 0
-309 -310 0
-302 310 311 0
302 -311 0
-310 -311 0
-301 311 312 0
301 -312 0
-311 -312 0
-296 312 313 0
296 -313 0
-312 -313 0
-283 313 314 0
283 -314 0
-313 -314 0
736 737 315 0
-736 -315 0
-737 -315 0
743 315 316 0
-743 -316 0
-315 -316 0
742 -316 317 0
-742 -317 0
316 -317 0
739 -317 318 0
-739 -318 0
317 -318 0
738 -318 319 0
-738 -319 0
318 -319 0
740 741 320 0
-740 -320 0
-741 -320 0
742 743 321 0
-742 -321 0
-743 -321 0
320 -321 322 0
-320 -322 0
321 -322 0
744 745 323 0
-744 -323 0
-745 -323 0
752 -323 324 0
-752 -324 0
323 -324 0
749 -324 325 0
-749 -325 0
324 -325 0
748 -325 326 0
-748 -326 0
325 -326 0
753 -326 327 0
-753 -327 0
326 -327 0
322 -327 328 0
-322 -328 0
327 -328 0
319 -328 329 0
-319 -329 0
328 -329 0
314 -329 330 0
-314 -330 0
329 -330 0
-270 330 331 0
270 -331 0
-330 -331 0
760 761 332 0
-760 -332 0
-761 -332 0
762 763 333 0
-762 -333 0
-763 -333 0
332 -333 334 0
-332 -334 0
333 -334 0
765 -77 335 0
-765 -335 0
77 -335 0
764 -335 336 0
-764 -336 0
335 -336 0
334 -336 337 0
-334 -337 0
336 -337 0
773 -337 338 0
-773 -338 0
337 -338 0
772 -338 339 0
-772 -339 0
338 -339 0
756 757 340 0
-756 -340 0
-757 -340 0
763 340 341 0
-763 -341 0
-340 -341 0
762 -341 342 0
-762 -342 0
341 -342 0
759 -342 343 0
-759 -343 0
342 -343 0
758 -343 344 0
-758 -344 0
343 -344 0
-339 344 345 0
339 -345 0
-344 -345 0
331 -345 346 0
-331 -346 0
345 -346 0
-257 346 347 0
257 -347 0
-346 -347 0
776 777 348 0
-776 -348 0
-777 -348 0
778 779 349 0
-778 -349 0
-779 -349 0
348 -349 350 0
-348 -350 0
349 -350 0
781 350 351 0
-781 -351 0
-350 -351 0
780 -351 352 0
-780 -352 0
351 -352 0
783 352 353 0
-783 -353 0
-352 -353 0
782 -353 354 0
-782 -354 0
353 -354 0
785 -239 355 0
-785 -355 0
239 -355 0
784 -355 356 0
-784 -356 0
355 -356 0
-238 -356 357 0
238 -357 0
356 -357 0
354 -357 358 0
-354 -358 0
357 -358 0
347 -358 359 0
-347 -359 0
358 -359 0
-245 359 360 0
245 -360 0
-359 -360 0
801 -26 361 0
-801 -361 0
26 -361 0
800 -361 362 0
-800 -362 0
361 -362 0
-216 -362 363 0
216 -363 0
362 -363 0
215 -363 364 0
-215 -364 0
363 -364 0
-209 -364 365 0
209 -365 0
364 -365 0
360 -365 366 0
-360 -366 0
365 -366 0
-231 366 367 0
231 -367 0
-366 -367 0
828 829 368 0
-828 -368 0
-829 -368 0
827 -368 369 0
-827 -369 0
368 -369 0
826 -369 370 0
-826 -370 0
369 -370 0
819 -205 371 0
-819 -371 0
205 -371 0
818 -371 372 0
-818 -372 0
371 -372 0
795 -232 373 0
-795 -373 0
232 -373 0
794 -373 374 0
-794 -374 0
373 -374 0
799 800 375 0
-799 -375 0
-800 -375 0
798 -375 376 0
-798 -376 0
375 -376 0
374 -376 377 0
-374 -377 0
376 -377 0
801 -377 378 0
-801 -378 0
377 -378 0
803 -216 379 0
-803 -379 0
216 -379 0
802 -379 380 0
-802 -380 0
379 -380 0
378 -380 381 0
-378 -381 0
380 -381 0
-28 381 382 0
28 -382 0
-381 -382 0
792 793 383 0
-792 -383 0
-793 -383 0
791 -383 384 0
-791 -384 0
383 -384 0
790 -384 385 0
-790 -385 0
384 -385 0
800 801 386 0
-800 -386 0
-801 -386 0
799 -386 387 0
-799 -387 0
386 -387 0
798 -387 388 0
-798 -388 0
387 -388 0
-385 -388 389 0
385 -389 0
388 -389 0
-28 -389 390 0
28 -390 0
389 -390 0
382 390 391 0
-382 -391 0
-390 -391 0
-372 -391 392 0
372 -392 0
391 -392 0
-25 -392 393 0
25 -393 0
392 -393 0
816 817 394 0
-816 -394 0
-817 -394 0
815 -394 395 0
-815 -395 0
394 -395 0
814 -395 396 0
-814 -396 0
395 -396 0
819 820 397 0
-819 -397 0
-820 -397 0
818 -397 398 0
-818 -398 0
397 -398 0
396 -398 399 0
-396 -399 0
398 -399 0
821 -399 400 0
-821 -400 0
399 -400 0
-199 400 401 0
199 -401 0
-400 -401 0
823 -401 402 0
-823 -402 0
401 -402 0
822 -402 403 0
-822 -403 0
402 -403 0
393 -403 404 0
-393 -404 0
403 -404 0
-370 404 405 0
370 -405 0
-404 -405 0
784 785 406 0
-784 -406 0
-785 -406 0
783 -406 407 0
-783 -407 0
406 -407 0
782 -407 408 0
-782 -408 0
407 -408 0
775 -348 409 0
-775 -409 0
348 -409 0
774 -409 410 0
-774 -410 0
409 -410 0
752 753 411 0
-752 -411 0
-753 -411 0
751 -411 412 0
-751 -412 0
411 -412 0
750 -412 413 0
-750 -413 0
412 -413 0
759 -332 414 0
-759 -414 0
332 -414 0
758 -414 415 0
-758 -415 0
414 -415 0
-413 -415 416 0
413 -416 0
415 -416 0
-410 -416 417 0
410 -417 0
416 -417 0
-79 -417 418 0
79 -418 0
417 -418 0
743 -323 419 0
-743 -419 0
323 -419 0
742 -419 420 0
-742 -420 0
419 -420 0
735 -315 421 0
-735 -421 0
315 -421 0
734 -421 422 0
-734 -422 0
421 -422 0
732 733 423 0
-732 -423 0
-733 -423 0
731 -423 424 0
-731 -424 0
423 -424 0
730 -424 425 0
-730 -425 0
424 -425 0
727 -272 426 0
-727 -426 0
272 -426 0
726 -426 427 0
-726 -427 0
426 -427 0
719 720 428 0
-719 -428 0
-720 -428 0
718 -428 429 0
-718 -429 0
428 -429 0
723 -429 430 0
-723 -430 0
429 -430 0
722 -430 431 0
-722 -431 0
430 -431 0
721 -431 432 0
-721 -432 0
431 -432 0
708 709 433 0
-708 -433 0
-709 -433 0
707 -433 434 0
-707 -434 0
433 -434 0
706 -434 435 0
-706 -435 0
434 -435 0
711 712 436 0
-711 -436 0
-712 -436 0
710 -436 437 0
-710 -437 0
436 -437 0
435 -437 438 0
-435 -438 0
437 -438 0
713 -438 439 0
-713 -439 0
438 -439 0
715 -289 440 0
-715 -440 0
289 -440 0
714 -440 441 0
-714 -441 0
440 -441 0
439 -441 442 0
-439 -442 0
441 -442 0
-432 442 443 0
432 -443 0
-442 -443 0
724 725 444 0
-724 -444 0
-725 -444 0
723 -444 445 0
-723 -445 0
444 -445 0
722 -445 446 0
-722 -446 0
445 -446 0
443 -446 447 0
-443 -447 0
446 -447 0
-427 447 448 0
427 -448 0
-447 -448 0
-425 448 449 0
425 -449 0
-448 -449 0
-422 449 450 0
422 -450 0
-449 -450 0
739 -320 451 0
-739 -451 0
320 -451 0
738 -451 452 0
-738 -452 0
451 -452 0
450 -452 453 0
-450 -453 0
452 -453 0
-420 453 454 0
420 -454 0
-453 -454 0
747 -264 455 0
-747 -455 0
264 -455 0
746 -455 456 0
-746 -456 0
455 -456 0
454 -456 457 0
-454 -457 0
456 -457 0
-418 457 458 0
418 -458 0
-457 -458 0
780 781 459 0
-780 -459 0
-781 -459 0
779 -459 460 0
-779 -460 0
459 -460 0
778 -460 461 0
-778 -461 0
460 -461 0
755 -340 462 0
-755 -462 0
340 -462 0
754 -462 463 0
-754 -463 0
462 -463 0
759 760 464 0
-759 -464 0
-760 -464 0
758 -464 465 0
-758 -465 0
464 -465 0
463 -465 466 0
-463 -466 0
465 -466 0
761 -466 467 0
-761 -467 0
466 -467 0
764 765 468 0
-764 -468 0
-765 -468 0
763 -468 469 0
-763 -469 0
468 -469 0
762 -469 470 0
-762 -470 0
469 -470 0
467 -470 471 0
-467 -471 0
470 -471 0
-79 471 472 0
79 -472 0
-471 -472 0
-85 472 473 0
85 -473 0
-472 -473 0
-410 473 474 0
410 -474 0
-473 -474 0
-461 474 475 0
461 -475 0
-474 -475 0
458 -475 476 0
-458 -476 0
475 -476 0
-408 476 477 0
408 -477 0
-476 -477 0
787 -239 478 0
-787 -478 0
239 -478 0
786 -478 479 0
-786 -479 0
478 -479 0
382 -479 480 0
-382 -480 0
479 -480 0
-372 -480 481 0
372 -481 0
480 -481 0
-25 -481 482 0
25 -482 0
481 -482 0
-370 -482 483 0
370 -483 0
482 -483 0
477 -483 484 0
-477 -484 0
483 -484 0
405 484 485 0
-405 -485 0
-484 -485 0
827 828 486 0
-827 -486 0
-828 -486 0
826 -486 487 0
-826 -487 0
486 -487 0
-198 -487 488 0
198 -488 0
487 -488 0
-199 -488 489 0
199 -489 0
488 -489 0
829 -489 490 0
-829 -490 0
489 -490 0
-372 -396 491 0
372 -491 0
396 -491 0
811 812 492 0
-811 -492 0
-812 -492 0
810 -492 493 0
-810 -493 0
492 -493 0
807 808 494 0
-807 -494 0
-808 -494 0
806 -494 495 0
-806 -495 0
494 -495 0
-493 -495 496 0
493 -496 0
495 -496 0
813 -496 497 0
-813 -497 0
496 -497 0
809 -497 498 0
-809 -498 0
497 -498 0
-491 498 499 0
491 -499 0
-498 -499 0
-490 499 500 0
490 -500 0
-499 -500 0
-410 -461 501 0
410 -501 0
461 -501 0
-385 -501 502 0
385 -502 0
501 -502 0
-374 -502 503 0
374 -503 0
502 -503 0
-415 -470 504 0
415 -504 0
470 -504 0
-422 -452 505 0
422 -505 0
452 -505 0
732 -444 506 0
-732 -506 0
444 -506 0
729 -506 507 0
-729 -507 0
506 -507 0
728 -507 508 0
-728 -508 0
507 -508 0
733 -508 509 0
-733 -509 0
508 -509 0
715 716 510 0
-715 -510 0
-716 -510 0
714 -510 511 0
-714 -511 0
510 -511 0
-437 -511 512 0
437 -512 0
511 -512 0
717 -512 513 0
-717 -513 0
512 -513 0
713 -513 514 0
-713 -514 0
513 -514 0
722 -290 515 0
-722 -515 0
290 -515 0
721 -515 516 0
-721 -516 0
515 -516 0
720 -516 517 0
-720 -517 0
516 -517 0
723 -517 518 0
-723 -518 0
517 -518 0
514 -518 519 0
-514 -519 0
518 -519 0
-509 -519 520 0
509 -520 0
519 -520 0
-425 520 521 0
425 -521 0
-520 -521 0
-427 -521 522 0
427 -522 0
521 -522 0
-505 522 523 0
505 -523 0
-522 -523 0
-420 -456 524 0
420 -524 0
456 -524 0
523 -524 525 0
-523 -525 0
524 -525 0
-413 525 526 0
413 -526 0
-525 -526 0
-463 -526 527 0
463 -527 0
526 -527 0
-504 527 528 0
504 -528 0
-527 -528 0
-79 -85 529 0
79 -529 0
85 -529 0
528 -529 530 0
-528 -530 0
529 -530 0
-503 530 531 0
503 -531 0
-530 -531 0
783 784 532 0
-783 -532 0
-784 -532 0
782 -532 533 0
-782 -533 0
532 -533 0
787 788 534 0
-787 -534 0
-788 -534 0
786 -534 535 0
-786 -535 0
534 -535 0
-533 -535 536 0
533 -536 0
535 -536 0
789 -536 537 0
-789 -537 0
536 -537 0
785 -537 538 0
-785 -538 0
537 -538 0
-374 -385 539 0
374 -539 0
385 -539 0
538 -539 540 0
-538 -540 0
539 -540 0
-388 540 541 0
388 -541 0
-540 -541 0
-380 -541 542 0
380 -542 0
541 -542 0
-396 -542 543 0
396 -543 0
542 -543 0
-372 -543 544 0
372 -544 0
543 -544 0
531 -544 545 0
-531 -545 0
544 -545 0
-500 545 546 0
500 -546 0
-545 -546 0
-198 -491 547 0
198 -547 0
491 -547 0
-199 -547 548 0
199 -548 0
547 -548 0
-370 -548 549 0
370 -549 0
548 -549 0
-380 -388 550 0
380 -550 0
388 -550 0
-25 -550 551 0
25 -551 0
550 -551 0
-28 -551 552 0
28 -552 0
551 -552 0
-413 -463 553 0
413 -553 0
463 -553 0
-415 -553 554 0
415 -554 0
553 -554 0
-470 -554 555 0
470 -555 0
554 -555 0
-420 -505 556 0
420 -556 0
505 -556 0
-456 -556 557 0
456 -557 0
556 -557 0
-425 -518 558 0
425 -558 0
518 -558 0
-427 -558 559 0
427 -559 0
558 -559 0
-444 -559 560 0
444 -560 0
559 -560 0
-557 560 561 0
557 -561 0
-560 -561 0
-555 561 562 0
555 -562 0
-561 -562 0
-408 -479 563 0
408 -563 0
479 -563 0
-85 -563 564 0
85 -564 0
563 -564 0
-79 -564 565 0
79 -565 0
564 -565 0
-503 -565 566 0
503 -566 0
565 -566 0
-552 -566 567 0
552 -567 0
566 -567 0
-549 -567 568 0
549 -568 0
567 -568 0
562 -568 569 0
-562 -569 0
568 -569 0
-539 569 570 0
539 -570 0
-569 -570 0
-538 -570 571 0
538 -571 0
570 -571 0
-552 571 572 0
552 -572 0
-571 -572 0
-549 572 573 0
549 -573 0
-572 -573 0
-503 -538 574 0
503 -574 0
538 -574 0
-420 -452 575 0
420 -575 0
452 -575 0
-456 -575 576 0
456 -576 0
575 -576 0
-415 -463 577 0
415 -577 0
463 -577 0
-470 -577 578 0
470 -578 0
577 -578 0
-576 -578 579 0
576 -579 0
578 -579 0
-413 -579 580 0
413 -580 0
579 -580 0
-422 -580 581 0
422 -581 0
580 -581 0
-574 581 582 0
574 -582 0
-581 -582 0
-529 -582 583 0
529 -583 0
582 -583 0
-552 583 584 0
552 -584 0
-583 -584 0
-549 -584 585 0
549 -585 0
584 -585 0
720 721 586 0
-720 -586 0
-721 -586 0
719 -586 587 0
-719 -587 0
586 -587 0
718 -587 588 0
-718 -588 0
587 -588 0
722 -588 589 0
-722 -589 0
588 -589 0
-425 -589 590 0
425 -590 0
589 -590 0
-444 -590 591 0
444 -591 0
590 -591 0
723 -591 592 0
-723 -592 0
591 -592 0
-427 -592 593 0
427 -593 0
592 -593 0
-555 -557 594 0
555 -594 0
557 -594 0
-566 -594 595 0
566 -595 0
594 -595 0
-552 -595 596 0
552 -596 0
595 -596 0
-549 -596 597 0
549 -597 0
596 -597 0
703 -305 598 0
-703 -598 0
305 -598 0
702 -598 599 0
-702 -599 0
598 -599 0
-441 -599 600 0
441 -600 0
599 -600 0
-304 -600 601 0
304 -601 0
600 -601 0
-597 -601 602 0
597 -602 0
601 -602 0
-593 -602 603 0
593 -603 0
602 -603 0
-435 -603 604 0
435 -604 0
603 -604 0
50 197 605 0
-50 -605 0
-197 -605 0
-50 -197 606 0
50 -606 0
197 -606 0
605 606 607 0
-605 -607 0
-606 -607 0
-367 605 608 0
367 -608 0
-605 -608 0
367 -605 609 0
-367 -609 0
605 -609 0
608 609 610 0
-608 -610 0
-609 -610 0
204 -610 611 0
-204 -611 0
610 -611 0
-204 610 612 0
204 -612 0
-610 -612 0
611 612 613 0
-611 -613 0
-612 -613 0
204 367 614 0
-204 -614 0
-367 -614 0
-204 -367 615 0
204 -615 0
367 -615 0
-605 615 616 0
605 -616 0
-615 -616 0
605 -614 617 0
-605 -617 0
614 -617 0
616 617 618 0
-616 -618 0
-617 -618 0
-485 -618 619 0
485 -619 0
618 -619 0
485 618 620 0
-485 -620 0
-618 -620 0
619 620 621 0
-619 -621 0
-620 -621 0
-485 -621 622 0
485 -622 0
621 -622 0
485 621 623 0
-485 -623 0
-621 -623 0
622 623 624 0
-622 -624 0
-623 -624 0
546 -618 625 0
-546 -625 0
618 -625 0
-546 618 626 0
546 -626 0
-618 -626 0
625 626 627 0
-625 -627 0
-626 -627 0
546 -627 628 0
-546 -628 0
627 -628 0
-546 627 629 0
546 -629 0
-627 -629 0
628 629 630 0
-628 -630 0
-629 -630 0
573 -618 631 0
-573 -631 0
618 -631 0
-573 618 632 0
573 -632 0
-618 -632 0
631 632 633 0
-631 -633 0
-632 -633 0
573 -633 634 0
-573 -634 0
633 -634 0
-573 633 635 0
573 -635 0
-633 -635 0
634 635 636 0
-634 -636 0
-635 -636 0
585 -618 637 0
-585 -637 0
618 -637 0
-585 618 638 0
585 -638 0
-618 -638 0
637 638 639 0
-637 -639 0
-638 -639 0
585 -639 640 0
-585 -640 0
639 -640 0
-585 639 641 0
585 -641 0
-639 -641 0
640 641 642 0
-640 -642 0
-641 -642 0
568 -618 643 0
-568 -643 0
618 -643 0
-568 618 644 0
568 -644 0
-618 -644 0
643 644 645 0
-643 -645 0
-644 -645 0
568 -645 646 0
-568 -646 0
645 -646 0
-568 645 647 0
568 -647 0
-645 -647 0
646 647 648 0
-646 -648 0
-647 -648 0
604 -618 649 0
-604 -649 0
618 -649 0
-604 618 650 0
604 -650 0
-618 -650 0
649 650 651 0
-649 -651 0
-650 -651 0
604 -651 652 0
-604 -652 0
651 -652 0
-604 651 653 0
604 -653 0
-651 -653 0
652 653 654 0
-652 -654 0
-653 -654 0
-607 -613 655 0
607 -655 0
613 -655 0
-624 655 656 0
624 -656 0
-655 -656 0
624 -655 657 0
-624 -657 0
655 -657 0
656 657 658 0
-656 -658 0
-657 -658 0
-624 -655 659 0
624 -659 0
655 -659 0
-630 659 660 0
630 -660 0
-659 -660 0
630 -659 661 0
-630 -661 0
659 -661 0
660 661 662 0
-660 -662 0
-661 -662 0
-630 -659 663 0
630 -663 0
659 -663 0
-636 663 664 0
636 -664 0
-663 -664 0
636 -663 665 0
-636 -665 0
663 -665 0
664 665 666 0
-664 -666 0
-665 -666 0
-636 -663 667 0
636 -667 0
663 -667 0
-642 667 668 0
642 -668 0
-667 -668 0
642 -667 669 0
-642 -669 0
667 -669 0
668 669 670 0
-668 -670 0
-669 -670 0
-642 -667 671 0
642 -671 0
667 -671 0
-648 671 672 0
648 -672 0
-671 -672 0
648 -671 673 0
-648 -673 0
671 -673 0
672 673 674 0
-672 -674 0
-673 -674 0
-648 -671 675 0
648 -675 0
671 -675 0
-654 675 676 0
654 -676 0
-675 -676 0
654 -675 677 0
-654 -677 0
675 -677 0
676 677 678 0
-676 -678 0
-677 -678 0
-618 624 679 0
618 -679 0
-624 -679 0
618 658 680 0
-618 -680 0
-658 -680 0
679 680 681 0
-679 -681 0
-680 -681 0
-618 630 682 0
618 -682 0
-630 -682 0
618 662 683 0
-618 -683 0
-662 -683 0
682 683 684 0
-682 -684 0
-683 -684 0
-618 636 685 0
618 -685 0
-636 -685 0
618 666 686 0
-618 -686 0
-666 -686 0
685 686 687 0
-685 -687 0
-686 -687 0
-618 642 688 0
618 -688 0
-642 -688 0
618 670 689 0
-618 -689 0
-670 -689 0
688 689 690 0
-688 -690 0
-689 -690 0
-618 648 691 0
618 -691 0
-648 -691 0
618 674 692 0
-618 -692 0
-674 -692 0
691 692 693 0
-691 -693 0
-692 -693 0
-618 654 694 0
618 -694 0
-654 -694 0
618 678 695 0
-618 -695 0
-678 -695 0
694 695 696 0
-694 -696 0
-695 -696 0
-681 -684 697 0
681 -697 0
684 -697 0
-687 -697 698 0
687 -698 0
697 -698 0
-690 -698 699 0
690 -699 0
698 -699 0
-693 -699 700 0
693 -700 0
699 -700 0
-696 -700 701 0
696 -701 0
700 -701 0
830 0
701 0
